solving instance mcnd arcs c25_100_10_F_L_5 3 6 square
Set parameter TokenServer to value "licences.gerad.lan"
Set parameter MIPGap to value 1e-06
Set parameter FuncPieceError to value 1e-06
Set parameter Threads to value 1
Set parameter FuncPieces to value -2
Set parameter TimeLimit to value 3600
Gurobi Optimizer version 12.0.2 build v12.0.2rc0 (linux64 - "AlmaLinux 9.6 (Sage Margay)")

CPU model: Intel(R) Xeon(R) Gold 6258R CPU @ 2.70GHz, instruction set [SSE2|AVX|AVX2|AVX512]
Thread count: 56 physical cores, 56 logical processors, using up to 1 threads

Non-default parameters:
TimeLimit  3600
MIPGap  1e-06
Threads  1
FuncPieces  -2
FuncPieceError  1e-06

Optimize a model with 1700 rows, 1450 columns and 7675 nonzeros
Model fingerprint: 0x9683db3b
Model has 100 function constraints treated as nonlinear
  100 POW
Variable types: 1325 continuous, 125 integer (125 binary)
Coefficient statistics:
  Matrix range     [5e-01, 9e+02]
  Objective range  [1e+00, 1e+03]
  Bounds range     [1e+00, 1e+10]
  RHS range        [6e+00, 9e+00]
Warning: Model contains large bounds
         Consider reformulating model or setting NumericFocus parameter
         to avoid numerical issues.
Presolve removed 426 rows and 263 columns
Presolve time: 0.02s
Presolved: 1274 rows, 1187 columns, 6556 nonzeros
Presolved model has 99 quadratic objective terms
Variable types: 1089 continuous, 98 integer (98 binary)
Found heuristic solution: objective 68357.828831

Root relaxation: objective 1.434647e+04, 5631 iterations, 0.42 seconds (0.33 work units)

    Nodes    |    Current Node    |     Objective Bounds      |     Work
 Expl Unexpl |  Obj  Depth IntInf | Incumbent    BestBd   Gap | It/Node Time

     0     0 14346.4714    0   70 68357.8288 14346.4714  79.0%     -    0s
H    0     0                    51717.136757 14346.4714  72.3%     -    0s
H    0     0                    51701.142421 14346.4714  72.3%     -    0s
     0     0 14588.4383    0   72 51701.1424 14588.4383  71.8%     -    0s
     0     0 14588.4383    0   40 51701.1424 14588.4383  71.8%     -    1s
     0     0 14588.4383    0   45 51701.1424 14588.4383  71.8%     -    1s
     0     0 14588.4383    0   45 51701.1424 14588.4383  71.8%     -    1s
     0     0 14588.4383    0   46 51701.1424 14588.4383  71.8%     -    1s
     0     0 14588.4383    0   46 51701.1424 14588.4383  71.8%     -    1s
     0     0 14588.4383    0   58 51701.1424 14588.4383  71.8%     -    2s
     0     0 15104.1047    0   41 51701.1424 15104.1047  70.8%     -    3s
     0     0 15666.8926    0   48 51701.1424 15666.8926  69.7%     -    3s
     0     0 15749.8794    0   45 51701.1424 15749.8794  69.5%     -    4s
     0     0 16211.6461    0   47 51701.1424 16211.6461  68.6%     -    4s
     0     0 16220.9830    0   48 51701.1424 16220.9830  68.6%     -    4s
     0     0 16680.9947    0   46 51701.1424 16680.9947  67.7%     -    5s
     0     0 16700.0243    0   39 51701.1424 16700.0243  67.7%     -    5s
     0     0 16896.4043    0   59 51701.1424 16896.4043  67.3%     -    5s
     0     0 16915.5174    0   56 51701.1424 16915.5174  67.3%     -    5s
     0     0 17102.1031    0   47 51701.1424 17102.1031  66.9%     -    6s
     0     0 17128.3622    0   52 51701.1424 17128.3622  66.9%     -    6s
     0     0 17177.5164    0   46 51701.1424 17177.5164  66.8%     -    6s
     0     0 17187.5185    0   47 51701.1424 17187.5185  66.8%     -    6s
     0     0 17237.7342    0   58 51701.1424 17237.7342  66.7%     -    6s
     0     0 17247.5620    0   49 51701.1424 17247.5620  66.6%     -    6s
     0     0 17289.6536    0   52 51701.1424 17289.6536  66.6%     -    7s
     0     0 17311.0329    0   45 51701.1424 17311.0329  66.5%     -    7s
     0     0 17330.6156    0   51 51701.1424 17330.6156  66.5%     -    7s
     0     0 17343.2283    0   53 51701.1424 17343.2283  66.5%     -    7s
     0     0 17347.6020    0   47 51701.1424 17347.6020  66.4%     -    7s
     0     0 17348.6924    0   49 51701.1424 17348.6924  66.4%     -    7s
     0     2 17349.0136    0   49 51701.1424 17349.0136  66.4%     -    7s
    22    24 18226.5130   11    5 51701.1424 17491.3968  66.2%  1156   10s
H   42    42                    23042.214803 17491.3968  24.1%   724   13s
H   44    40                    19242.097077 17491.3968  9.10%   698   13s
    62    50 18942.3370   12   14 19242.0971 17492.8003  9.09%   677   15s
H   89    35                    18442.625689 17571.7891  4.72%   575   16s
   219   101 17850.2073    4   25 18442.6257 17678.3982  4.14%   382   20s
H  247    77                    18101.959994 17756.1360  1.91%   379   21s
H  318    32                    17976.852538 17863.3733  0.63%   352   23s

Cutting planes:
  Cover: 2
  Implied bound: 2
  MIR: 46
  Flow cover: 33

Explored 357 nodes (196443 simplex iterations) in 23.66 seconds (8.77 work units)
Thread count was 1 (of 56 available processors)

Solution count 7: 17976.9 18102 18442.6 ... 68357.8

Optimal solution found (tolerance 1.00e-06)
Warning: max constraint violation (7.3677e-06) exceeds tolerance
Best objective 1.797685316275e+04, best bound 1.797685176144e+04, gap 0.0000%

User-callback calls 3225, time in user-callback 0.01 sec
primal_bound = 17976.853162748484, dual_bound = 17976.85176144343, gap = 7.795052006399296e-6, time = 23.68
